instances/p1/p1_6_5-4.dzn
Alphabet = {A,C,G,T};
ns = 6;
nc = 5;
neighbours = [| I(C),I(C),I(A),I(A),I(T) | I(C),I(C),I(A),I(A),I(A) | I(A),I(A),I(C),I(C),I(A) | I(A),I(G),I(C),I(A),I(A) | I(C),I(A),I(A),I(C),I(C) | I(A),I(A),I(G),I(A),I(A) |];
