instances/p1/p1_6_5-4.txt
{
	"num_strings": 6,
	"alphabet": "ACGT",
	"strings": [
		"CCAAT",
		"CCAAA",
		"AACCA",
		"AGCAA",
		"CAACC",
		"AAGAA"
	],
	"str_length":[5,5,5,5,5,5]
}